LibMLKEM/why3-cvc5/mlkem.adb_899_10_range_check_1.smt2
;; produced by cvc5.drv ;;
(set-logic ALL)
(set-info :smt-lib-version 2.6)
;;; generated by SMT-LIB2 driver
;;; SMT-LIB2 driver: bit-vectors, common part
;;; SMT-LIB2: integer arithmetic
;; "pow2"
(declare-fun pow2 (Int) Int)

(declare-const two_power_size_minus_one Int)

;; "two_power_size_minus_one_val"
(assert (= two_power_size_minus_one (pow2 (- 8 1))))

;; "min"
(define-fun min ((x Int) (y Int)) Int
  (ite (<= x y) x y))

;; "max"
(define-fun max ((x Int) (y Int)) Int
  (ite (<= x y) y x))

;; "Min_r"
(assert (forall ((x Int) (y Int)) (=> (<= y x) (= (min x y) y))))

;; "Max_l"
(assert (forall ((x Int) (y Int)) (=> (<= y x) (= (max x y) x))))

;; "Min_comm"
(assert (forall ((x Int) (y Int)) (= (min x y) (min y x))))

;; "Max_comm"
(assert (forall ((x Int) (y Int)) (= (max x y) (max y x))))

;; "Min_assoc"
(assert
  (forall ((x Int) (y Int) (z Int)) (= (min (min x y) z) (min x (min y z)))))

;; "Max_assoc"
(assert
  (forall ((x Int) (y Int) (z Int)) (= (max (max x y) z) (max x (max y z)))))

(declare-sort byte 0)

;; "to_rep"
(declare-fun to_rep (byte) (_ BitVec 8))

;; "of_rep"
(declare-fun of_rep ((_ BitVec 8)) byte)

;; "inversion_axiom"
(assert
  (forall ((x byte)) (! (= (of_rep (to_rep x)) x) :pattern ((to_rep x)) )))

;; "range_axiom"
(assert true)

;; "coerce_axiom"
(assert
  (forall ((x (_ BitVec 8)))
    (! (= (to_rep (of_rep x)) x) :pattern ((to_rep (of_rep x))) )))

(declare-sort map1 0)

;; "has_bounds"
(declare-fun has_bounds (map1
  Int
  Int) Bool)

;; "get"
(declare-fun get (map1
  Int) byte)

;; "slide"
(declare-fun slide (map1
  Int
  Int) map1)

;; "slide_eq"
(assert
  (forall ((a map1) (first Int))
    (! (= (slide a first first) a) :pattern ((slide a first first)) )))

;; "slide_def"
(assert
  (forall ((a map1) (old_first Int) (new_first Int))
    (! (and
         (forall ((i Int))
           (! (= (get (slide a old_first new_first) i) (get
                                                         a
                                                         (- i (- new_first old_first)))) :pattern (
           (get
             (slide a old_first new_first)
             i)) ))
         (forall ((new_last Int))
           (! (=>
                (has_bounds a old_first (- new_last (- new_first old_first)))
                (has_bounds (slide a old_first new_first) new_first new_last)) :pattern (
           (has_bounds
             (slide a old_first new_first)
             new_first
             new_last)) ))) :pattern ((slide a old_first new_first)) )))

(declare-datatypes ((byte__init_wrapper 0))
  (((byte__init_wrapperqtmk (rec__value byte)(us_attr__init Bool)))))

(declare-sort map2 0)

;; "has_bounds"
(declare-fun has_bounds1 (map2
  Int
  Int) Bool)

;; "get"
(declare-fun get1 (map2
  Int) byte__init_wrapper)

(declare-const two_power_size_minus_one1 Int)

;; "two_power_size_minus_one_val"
(assert (= two_power_size_minus_one1 (pow2 (- 16 1))))

(declare-sort t 0)

;; "in_range"
(define-fun in_range ((x (_ BitVec 16))) Bool
  (and (bvule #x0000 x) (bvule x #x0D00)))

;; "to_rep"
(declare-fun to_rep1 (t) (_ BitVec 16))

;; "of_rep"
(declare-fun of_rep1 ((_ BitVec 16)) t)

;; "inversion_axiom"
(assert
  (forall ((x t)) (! (= (of_rep1 (to_rep1 x)) x) :pattern ((to_rep1 x)) )))

;; "range_axiom"
(assert (forall ((x t)) (! (in_range (to_rep1 x)) :pattern ((to_rep1 x)) )))

;; "coerce_axiom"
(assert
  (forall ((x (_ BitVec 16)))
    (! (let ((y (bvurem x #x0D01)))
         (=> (in_range y) (= (to_rep1 (of_rep1 x)) y))) :pattern ((to_rep1
                                                                    (of_rep1
                                                                    x))) )))

(declare-sort map3 0)

;; "has_bounds"
(declare-fun has_bounds2 (map3
  Int
  Int) Bool)

;; "byteencode12"
(declare-fun byteencode12 (map3) map1)

;; "byteencode12__function_guard"
(declare-fun byteencode12__function_guard (map1
  map3) Bool)

(declare-sort map4 0)

;; "has_bounds"
(declare-fun has_bounds3 (map4
  Int
  Int) Bool)

;; "get"
(declare-fun get2 (map4
  Int) map3)

(declare-const v map4)

;; "convert"
(declare-fun convert (map1) map2)

;; "convert__def"
(assert
  (forall ((a map1))
    (let ((b (convert a)))
      (forall ((temp___170 Int))
        (and
          (= (us_attr__init
               (byte__init_wrapperqtmk
                 (of_rep (to_rep (get a temp___170)))
                 true)) (us_attr__init (get1 b temp___170)))
          (= (to_rep
               (rec__value
                 (byte__init_wrapperqtmk
                   (of_rep (to_rep (get a temp___170)))
                   true))) (to_rep (rec__value (get1 b temp___170)))))))))

;; "dynamic_invariant"
(define-fun dynamic_invariant ((temp___expr_1123 map4) (temp___is_init_1119 Bool) (temp___skip_constant_1120 Bool) (temp___do_toplevel_1121 Bool) (temp___do_typ_inv_1122 Bool)) Bool
  (and
    (has_bounds3 temp___expr_1123 0 2)
    (forall ((temp___1124 Int))
      (=>
        (and (<= 0 temp___1124) (<= temp___1124 2))
        (has_bounds2 (get2 temp___expr_1123 temp___1124) 0 255)))))

(declare-sort tinteger_32B 0)

;; "tinteger_32B'int"
(declare-fun tinteger_32Bqtint (tinteger_32B) Int)

;; "tinteger_32B'axiom"
(assert
  (forall ((i tinteger_32B))
    (and
      (<= (- 2147483648) (tinteger_32Bqtint i))
      (<= (tinteger_32Bqtint i) 2147483647))))

;; "in_range"
(define-fun in_range1 ((x Int)) Bool
  (and (<= (- 2147483648) x) (<= x 2147483647)))

;; "to_rep"
(define-fun to_rep2 ((x tinteger_32B)) Int
  (tinteger_32Bqtint x))

;; "of_rep"
(declare-fun of_rep2 (Int) tinteger_32B)

;; "inversion_axiom"
(assert
  (forall ((x tinteger_32B))
    (! (= (of_rep2 (to_rep2 x)) x) :pattern ((to_rep2 x)) )))

;; "range_axiom"
(assert
  (forall ((x tinteger_32B))
    (! (in_range1 (to_rep2 x)) :pattern ((to_rep2 x)) )))

;; "coerce_axiom"
(assert
  (forall ((x Int))
    (! (=> (in_range1 x) (= (to_rep2 (of_rep2 x)) x)) :pattern ((to_rep2
                                                                  (of_rep2 x))) )))

(declare-datatypes ((t1 0))
  (((tqtmk (rec__first tinteger_32B)(rec__last tinteger_32B)))))

;; "mk"
(declare-fun mk (Int
  Int) t1)

;; "mk_def"
(assert
  (forall ((f Int) (l Int))
    (! (=>
         (in_range1 f)
         (=>
           (in_range1 l)
           (and
             (= (to_rep2 (rec__first (mk f l))) f)
             (= (to_rep2 (rec__last (mk f l))) l)))) :pattern ((mk f l)) )))

(declare-datatypes ((us_t 0))
  (((us_tqtmk (elts map2)(rt t1)))))

;; "of_array"
(define-fun of_array ((a map2) (f Int) (l Int)) us_t
  (us_tqtmk a (mk f l)))

;; Goal "def'vc"
;; File "mlkem.adb", line 893, characters 0-0
(assert
  (not
  (forall ((r map2))
    (=>
      (dynamic_invariant v true false true true)
      (=>
        (has_bounds1 r 0 1151)
        (forall ((i Int))
          (=>
            (= i 0)
            (=>
              (= (and (ite (<= 0 i) true false) (ite (<= i 2) true false)) true)
              (let ((o (get2 v i)))
                (let ((temp___4435 (byteencode12 o)))
                  (=>
                    (and
                      (byteencode12__function_guard temp___4435 o)
                      (has_bounds temp___4435 0 383))
                    (=>
                      (ite (<= 0 383)
                        (and
                          (<= (* i 384) (+ (* i 384) 383))
                          (= (- 383 0) (- (+ (* i 384) 383) (* i 384))))
                        (< (+ (* i 384) 383) (* i 384)))
                      (let ((temp___4441 (+ (* i 384) 383)))
                        (let ((temp___4440 (* i 384)))
                          (=>
                            (<= temp___4440 temp___4441)
                            (and
                              (and (<= 0 temp___4440) (<= temp___4440 1151))
                              (and (<= 0 temp___4441) (<= temp___4441 1151))))))))))))))))))

(check-sat)
